(declare-fun var0 () String)
(assert (RegexIn var0 (RegexConcat (RegexStar (RegexStar (Str2Reg "++"))) (RegexConcat (RegexPlus (RegexPlus (Str2Reg "***"))) (RegexConcat (RegexStar (RegexStar (Str2Reg ")"))) (RegexConcat (RegexPlus (RegexStar (Str2Reg "(("))) (RegexConcat (RegexStar (RegexPlus (Str2Reg "'"))) (RegexConcat (RegexUnion (RegexStar (Str2Reg "%")) (RegexStar (Str2Reg "&"))) (RegexConcat (RegexUnion (RegexStar (Str2Reg "\"\"\"")) (RegexUnion (Str2Reg "##") (Str2Reg "$"))) (RegexConcat (RegexStar (RegexStar (Str2Reg "!"))) (RegexConcat (RegexPlus (RegexStar (Str2Reg "ZZ"))) (RegexConcat (RegexUnion (RegexStar (Str2Reg "X")) (RegexPlus (Str2Reg "YYY"))) (RegexConcat (RegexStar (RegexUnion (Str2Reg "VV") (Str2Reg "WWW"))) (RegexConcat (RegexUnion (RegexUnion (Str2Reg "SSS") (Str2Reg "TTT")) (RegexPlus (Str2Reg "UU"))) (RegexConcat (RegexUnion (RegexStar (Str2Reg "QQ")) (RegexStar (Str2Reg "R"))) (RegexConcat (RegexStar (RegexStar (Str2Reg "PPP"))) (RegexConcat (RegexPlus (RegexStar (Str2Reg "OO"))) (RegexConcat (RegexUnion (RegexStar (Str2Reg "M")) (RegexPlus (Str2Reg "NNN"))) (RegexConcat (RegexPlus (RegexStar (Str2Reg "LLL"))) (RegexConcat (RegexUnion (RegexPlus (Str2Reg "II")) (RegexUnion (Str2Reg "JJJ") (Str2Reg "KKK"))) (RegexConcat (RegexPlus (RegexUnion (Str2Reg "GGG") (Str2Reg "H"))) (RegexConcat (RegexStar (RegexPlus (Str2Reg "FFF"))) (RegexConcat (RegexUnion (RegexStar (Str2Reg "DDD")) (RegexPlus (Str2Reg "E"))) (RegexConcat (RegexUnion (RegexUnion (Str2Reg "AAA") (Str2Reg "BB")) (RegexStar (Str2Reg "CC"))) (RegexConcat (RegexPlus (RegexPlus (Str2Reg "zz"))) (RegexConcat (RegexStar (RegexUnion (Str2Reg "xx") (Str2Reg "yy"))) (RegexConcat (RegexStar (RegexUnion (Str2Reg "vv") (Str2Reg "w"))) (RegexConcat (RegexStar (RegexPlus (Str2Reg "uuu"))) (RegexConcat (RegexUnion (RegexStar (Str2Reg "r")) (RegexUnion (Str2Reg "sss") (Str2Reg "ttt"))) (RegexConcat (RegexUnion (RegexPlus (Str2Reg "p")) (RegexPlus (Str2Reg "qqq"))) (RegexConcat (RegexUnion (RegexPlus (Str2Reg "n")) (RegexPlus (Str2Reg "ooo"))) (RegexConcat (RegexStar (RegexStar (Str2Reg "mmm"))) (RegexConcat (RegexPlus (RegexUnion (Str2Reg "kkk") (Str2Reg "lll"))) (RegexConcat (RegexStar (RegexStar (Str2Reg "jjj"))) (RegexConcat (RegexUnion (RegexPlus (Str2Reg "hh")) (RegexStar (Str2Reg "iii"))) (RegexConcat (RegexUnion (RegexPlus (Str2Reg "f")) (RegexPlus (Str2Reg "ggg"))) (RegexConcat (RegexPlus (RegexUnion (Str2Reg "d") (Str2Reg "e"))) (RegexConcat (RegexStar (RegexStar (Str2Reg "cc"))) (RegexConcat (RegexUnion (RegexUnion (Str2Reg "99") (Str2Reg "aa")) (RegexStar (Str2Reg "b"))) (RegexConcat (RegexStar (RegexStar (Str2Reg "88"))) (RegexConcat (RegexUnion (RegexPlus (Str2Reg "555")) (RegexUnion (Str2Reg "66") (Str2Reg "7"))) (RegexConcat (RegexPlus (RegexUnion (Str2Reg "33") (Str2Reg "44"))) (RegexConcat (RegexStar (RegexUnion (Str2Reg "11") (Str2Reg "2"))) (RegexConcat (RegexPlus (RegexStar (Str2Reg "00"))) (RegexConcat (RegexStar (RegexPlus (Str2Reg "~~"))) (RegexConcat (RegexPlus (RegexUnion (Str2Reg "|||") (Str2Reg "}}}"))) (RegexConcat (RegexUnion (RegexStar (Str2Reg "```")) (RegexPlus (Str2Reg "{{"))) (RegexConcat (RegexStar (RegexPlus (Str2Reg "___"))) (RegexConcat (RegexUnion (RegexStar (Str2Reg "\\\\\\")) (RegexUnion (Str2Reg "]]") (Str2Reg "^"))) (RegexConcat (RegexUnion (RegexUnion (Str2Reg ">>") (Str2Reg "?")) (RegexUnion (Str2Reg "@@@") (Str2Reg "[["))) (RegexConcat (RegexUnion (RegexPlus (Str2Reg "<<<")) (RegexStar (Str2Reg "=="))) (RegexConcat (RegexPlus (RegexPlus (Str2Reg ";;;"))) (RegexConcat (RegexPlus (RegexStar (Str2Reg ":::"))) (RegexConcat (RegexUnion (RegexStar (Str2Reg "...")) (RegexPlus (Str2Reg "///"))) (RegexConcat (RegexPlus (RegexStar (Str2Reg "--"))) (RegexConcat (RegexStar (RegexUnion (Str2Reg "+++") (Str2Reg ",,,"))) (RegexConcat (RegexUnion (RegexStar (Str2Reg ")))")) (RegexStar (Str2Reg "***"))) (RegexConcat (RegexUnion (RegexUnion (Str2Reg "%%%") (Str2Reg "&")) (RegexUnion (Str2Reg "'") (Str2Reg "("))) (RegexConcat (RegexPlus (RegexUnion (Str2Reg "##") (Str2Reg "$$"))) (RegexConcat (RegexStar (RegexPlus (Str2Reg "\""))) (RegexConcat (RegexUnion (RegexStar (Str2Reg "Z")) (RegexStar (Str2Reg "!!"))) (RegexConcat (RegexPlus (RegexPlus (Str2Reg "YYY"))) (RegexConcat (RegexStar (RegexPlus (Str2Reg "XX"))) (RegexConcat (RegexUnion (RegexPlus (Str2Reg "VV")) (RegexStar (Str2Reg "W"))) (RegexConcat (RegexPlus (RegexPlus (Str2Reg "UU"))) (RegexConcat (RegexUnion (RegexPlus (Str2Reg "SSS")) (RegexPlus (Str2Reg "TTT"))) (RegexConcat (RegexStar (RegexStar (Str2Reg "R"))) (RegexConcat (RegexUnion (RegexPlus (Str2Reg "PPP")) (RegexStar (Str2Reg "Q"))) (RegexConcat (RegexStar (RegexUnion (Str2Reg "NNN") (Str2Reg "OO"))) (RegexConcat (RegexUnion (RegexPlus (Str2Reg "LLL")) (RegexPlus (Str2Reg "M"))) (RegexConcat (RegexUnion (RegexPlus (Str2Reg "J")) (RegexStar (Str2Reg "KKK"))) (RegexConcat (RegexUnion (RegexPlus (Str2Reg "H")) (RegexStar (Str2Reg "I"))) (RegexConcat (RegexStar (RegexPlus (Str2Reg "GGG"))) (RegexConcat (RegexStar (RegexPlus (Str2Reg "FF"))) (RegexConcat (RegexUnion (RegexStar (Str2Reg "D")) (RegexStar (Str2Reg "E"))) (RegexConcat (RegexStar (RegexUnion (Str2Reg "B") (Str2Reg "CC"))) (RegexConcat (RegexUnion (RegexUnion (Str2Reg "x") (Str2Reg "yy")) (RegexUnion (Str2Reg "zz") (Str2Reg "A"))) (RegexConcat (RegexUnion (RegexPlus (Str2Reg "vvv")) (RegexStar (Str2Reg "w"))) (RegexConcat (RegexStar (RegexUnion (Str2Reg "t") (Str2Reg "uu"))) (RegexConcat (RegexPlus (RegexPlus (Str2Reg "ss"))) (RegexConcat (RegexUnion (RegexUnion (Str2Reg "pp") (Str2Reg "qq")) (RegexPlus (Str2Reg "rrr"))) (RegexConcat (RegexPlus (RegexUnion (Str2Reg "nn") (Str2Reg "oo"))) (RegexConcat (RegexStar (RegexPlus (Str2Reg "m"))) (RegexConcat (RegexUnion (RegexStar (Str2Reg "jj")) (RegexUnion (Str2Reg "k") (Str2Reg "l"))) (RegexConcat (RegexUnion (RegexUnion (Str2Reg "f") (Str2Reg "gg")) (RegexUnion (Str2Reg "hh") (Str2Reg "iii"))) (RegexConcat (RegexStar (RegexPlus (Str2Reg "ee"))) (RegexConcat (RegexPlus (RegexStar (Str2Reg "dd"))) (RegexConcat (RegexUnion (RegexUnion (Str2Reg "9") (Str2Reg "aa")) (RegexUnion (Str2Reg "bbb") (Str2Reg "ccc"))) (RegexConcat (RegexStar (RegexUnion (Str2Reg "7") (Str2Reg "88"))) (RegexConcat (RegexPlus (RegexStar (Str2Reg "6"))) (RegexConcat (RegexUnion (RegexPlus (Str2Reg "4")) (RegexPlus (Str2Reg "5"))) (RegexConcat (RegexPlus (RegexUnion (Str2Reg "222") (Str2Reg "33"))) (RegexPlus (RegexUnion (Str2Reg "00") (Str2Reg "111")))))))))))))))))))))))))))))))))))))))))))))))))))))))))))))))))))))))))))))))))))))))))))))))
(assert (not (RegexIn var0 (RegexConcat (RegexPlus (RegexUnion (Str2Reg "&") (Str2Reg "'''"))) (RegexConcat (RegexStar (RegexPlus (Str2Reg "%%"))) (RegexConcat (RegexUnion (RegexUnion (Str2Reg "!!") (Str2Reg "\"\"\"")) (RegexUnion (Str2Reg "##") (Str2Reg "$$$"))) (RegexConcat (RegexStar (RegexStar (Str2Reg "Z"))) (RegexConcat (RegexPlus (RegexPlus (Str2Reg "YYY"))) (RegexConcat (RegexStar (RegexUnion (Str2Reg "W") (Str2Reg "X"))) (RegexConcat (RegexPlus (RegexUnion (Str2Reg "UU") (Str2Reg "VVV"))) (RegexConcat (RegexPlus (RegexPlus (Str2Reg "T"))) (RegexConcat (RegexUnion (RegexUnion (Str2Reg "QQ") (Str2Reg "R")) (RegexStar (Str2Reg "S"))) (RegexConcat (RegexUnion (RegexUnion (Str2Reg "N") (Str2Reg "OO")) (RegexStar (Str2Reg "PPP"))) (RegexConcat (RegexUnion (RegexUnion (Str2Reg "JJ") (Str2Reg "KK")) (RegexUnion (Str2Reg "LL") (Str2Reg "MMM"))) (RegexConcat (RegexStar (RegexUnion (Str2Reg "HH") (Str2Reg "I"))) (RegexConcat (RegexUnion (RegexPlus (Str2Reg "FF")) (RegexPlus (Str2Reg "G"))) (RegexConcat (RegexStar (RegexUnion (Str2Reg "D") (Str2Reg "EEE"))) (RegexConcat (RegexUnion (RegexPlus (Str2Reg "BBB")) (RegexPlus (Str2Reg "CCC"))) (RegexConcat (RegexPlus (RegexStar (Str2Reg "AAA"))) (RegexConcat (RegexUnion (RegexStar (Str2Reg "x")) (RegexUnion (Str2Reg "yy") (Str2Reg "z"))) (RegexConcat (RegexStar (RegexUnion (Str2Reg "vvv") (Str2Reg "www"))) (RegexConcat (RegexStar (RegexUnion (Str2Reg "t") (Str2Reg "u"))) (RegexConcat (RegexStar (RegexUnion (Str2Reg "rr") (Str2Reg "sss"))) (RegexConcat (RegexPlus (RegexStar (Str2Reg "qq"))) (RegexConcat (RegexStar (RegexUnion (Str2Reg "o") (Str2Reg "ppp"))) (RegexConcat (RegexStar (RegexUnion (Str2Reg "mmm") (Str2Reg "n"))) (RegexConcat (RegexUnion (RegexPlus (Str2Reg "kkk")) (RegexPlus (Str2Reg "lll"))) (RegexConcat (RegexUnion (RegexUnion (Str2Reg "hhh") (Str2Reg "ii")) (RegexStar (Str2Reg "jj"))) (RegexConcat (RegexStar (RegexStar (Str2Reg "ggg"))) (RegexConcat (RegexStar (RegexUnion (Str2Reg "ee") (Str2Reg "f"))) (RegexConcat (RegexPlus (RegexPlus (Str2Reg "d"))) (RegexConcat (RegexPlus (RegexUnion (Str2Reg "bbb") (Str2Reg "c"))) (RegexConcat (RegexPlus (RegexUnion (Str2Reg "99") (Str2Reg "a"))) (RegexConcat (RegexPlus (RegexStar (Str2Reg "8"))) (RegexConcat (RegexUnion (RegexStar (Str2Reg "555")) (RegexUnion (Str2Reg "666") (Str2Reg "777"))) (RegexConcat (RegexPlus (RegexStar (Str2Reg "4"))) (RegexConcat (RegexPlus (RegexPlus (Str2Reg "333"))) (RegexConcat (RegexUnion (RegexPlus (Str2Reg "11")) (RegexPlus (Str2Reg "22"))) (RegexConcat (RegexStar (RegexUnion (Str2Reg "~~") (Str2Reg "0"))) (RegexConcat (RegexStar (RegexStar (Str2Reg "}}}"))) (RegexConcat (RegexUnion (RegexPlus (Str2Reg "{")) (RegexPlus (Str2Reg "|||"))) (RegexConcat (RegexUnion (RegexStar (Str2Reg "__")) (RegexStar (Str2Reg "```"))) (RegexConcat (RegexStar (RegexPlus (Str2Reg "^^^"))) (RegexConcat (RegexPlus (RegexPlus (Str2Reg "]]]"))) (RegexConcat (RegexPlus (RegexUnion (Str2Reg "[[") (Str2Reg "\\\\\\"))) (RegexConcat (RegexStar (RegexUnion (Str2Reg "?") (Str2Reg "@@@"))) (RegexConcat (RegexUnion (RegexStar (Str2Reg "=")) (RegexStar (Str2Reg ">>"))) (RegexConcat (RegexPlus (RegexStar (Str2Reg "<<<"))) (RegexConcat (RegexPlus (RegexStar (Str2Reg ";"))) (RegexConcat (RegexStar (RegexStar (Str2Reg "::"))) (RegexConcat (RegexUnion (RegexPlus (Str2Reg ".")) (RegexStar (Str2Reg "///"))) (RegexConcat (RegexUnion (RegexUnion (Str2Reg "+") (Str2Reg ",,,")) (RegexStar (Str2Reg "---"))) (RegexConcat (RegexUnion (RegexUnion (Str2Reg "(((") (Str2Reg ")))")) (RegexPlus (Str2Reg "**"))) (RegexConcat (RegexStar (RegexPlus (Str2Reg "''"))) (RegexConcat (RegexPlus (RegexPlus (Str2Reg "&"))) (RegexConcat (RegexPlus (RegexStar (Str2Reg "%"))) (RegexConcat (RegexUnion (RegexUnion (Str2Reg "!") (Str2Reg "\"\"")) (RegexUnion (Str2Reg "#") (Str2Reg "$$"))) (RegexConcat (RegexStar (RegexPlus (Str2Reg "ZZZ"))) (RegexConcat (RegexPlus (RegexPlus (Str2Reg "YYY"))) (RegexConcat (RegexPlus (RegexUnion (Str2Reg "WW") (Str2Reg "XXX"))) (RegexConcat (RegexPlus (RegexUnion (Str2Reg "UU") (Str2Reg "VV"))) (RegexConcat (RegexStar (RegexUnion (Str2Reg "SSS") (Str2Reg "T"))) (RegexConcat (RegexUnion (RegexStar (Str2Reg "QQQ")) (RegexPlus (Str2Reg "RRR"))) (RegexConcat (RegexPlus (RegexStar (Str2Reg "PPP"))) (RegexConcat (RegexPlus (RegexStar (Str2Reg "OO"))) (RegexConcat (RegexStar (RegexUnion (Str2Reg "M") (Str2Reg "N"))) (RegexConcat (RegexPlus (RegexStar (Str2Reg "LL"))) (RegexConcat (RegexUnion (RegexPlus (Str2Reg "III")) (RegexUnion (Str2Reg "JJ") (Str2Reg "KK"))) (RegexConcat (RegexStar (RegexPlus (Str2Reg "H"))) (RegexConcat (RegexPlus (RegexStar (Str2Reg "GGG"))) (RegexConcat (RegexStar (RegexStar (Str2Reg "F"))) (RegexConcat (RegexUnion (RegexStar (Str2Reg "DDD")) (RegexPlus (Str2Reg "EE"))) (RegexConcat (RegexUnion (RegexPlus (Str2Reg "BBB")) (RegexStar (Str2Reg "CC"))) (RegexConcat (RegexPlus (RegexStar (Str2Reg "AAA"))) (RegexConcat (RegexStar (RegexUnion (Str2Reg "y") (Str2Reg "zz"))) (RegexConcat (RegexPlus (RegexPlus (Str2Reg "x"))) (RegexConcat (RegexStar (RegexUnion (Str2Reg "v") (Str2Reg "ww"))) (RegexConcat (RegexUnion (RegexStar (Str2Reg "ttt")) (RegexStar (Str2Reg "uu"))) (RegexConcat (RegexStar (RegexUnion (Str2Reg "rr") (Str2Reg "s"))) (RegexConcat (RegexStar (RegexPlus (Str2Reg "qq"))) (RegexConcat (RegexStar (RegexStar (Str2Reg "pp"))) (RegexConcat (RegexUnion (RegexStar (Str2Reg "nn")) (RegexPlus (Str2Reg "oo"))) (RegexConcat (RegexStar (RegexUnion (Str2Reg "lll") (Str2Reg "mmm"))) (RegexConcat (RegexStar (RegexUnion (Str2Reg "j") (Str2Reg "kkk"))) (RegexConcat (RegexPlus (RegexStar (Str2Reg "i"))) (RegexConcat (RegexUnion (RegexUnion (Str2Reg "eee") (Str2Reg "f")) (RegexUnion (Str2Reg "ggg") (Str2Reg "hh"))) (RegexConcat (RegexStar (RegexPlus (Str2Reg "d"))) (RegexConcat (RegexStar (RegexStar (Str2Reg "ccc"))) (RegexConcat (RegexStar (RegexUnion (Str2Reg "aa") (Str2Reg "bb"))) (RegexConcat (RegexUnion (RegexStar (Str2Reg "777")) (RegexUnion (Str2Reg "888") (Str2Reg "999"))) (RegexConcat (RegexUnion (RegexStar (Str2Reg "55")) (RegexStar (Str2Reg "666"))) (RegexConcat (RegexUnion (RegexStar (Str2Reg "33")) (RegexStar (Str2Reg "444"))) (RegexConcat (RegexPlus (RegexStar (Str2Reg "222"))) (RegexUnion (RegexPlus (Str2Reg "000")) (RegexStar (Str2Reg "1"))))))))))))))))))))))))))))))))))))))))))))))))))))))))))))))))))))))))))))))))))))))))))))))))
(check-sat)